5 100 254
0 82 76
1 96 44 19 64
2 50 5 21 78
3 49 8 6 36
4 13 7 19 66
5 29 89 7 54
6 58 30 12 67
7 84 39 16 15
8 14 24 6 25
9 2 39 16 76
10 3 82 8 9
11 5 10 14 80
12 98 52 21 37
13 84 25 16 11
14 61 59 3 72
15 1 65 22 53
16 88 51 18 30
17 91 2 19 56
18 19 32 1 59
19 93 3 24 60
20 50 93 8 11
21 98 14 12 13
22 5 42 4 39
23 42 9 8 38
24 61 62 24 23
25 9 97 24 10
26 80 55 2 45
27 57 69 20 61
28 23 15 15 4
29 20 70 2 72
30 85 60 14 65
31 98 5 9 24
